
  32    1
  10

   0   0   3 2 3 7 
   9   1   2 6 5 
  10   8   2 5 4 
   2   8   3 14 9 8 
   6   9   4 14 13 12 10 
   5   8   2 9 8 
   1   2   2 13 8 
   1   8   4 17 16 15 12 
   6   5   2 13 11 
   2   6   2 17 11 
   7   4   3 18 16 15 
   2   1   4 24 22 21 18 
   4   7   1 15 
   1   4   1 15 
   8  10   4 24 22 21 19 
   3   9   4 24 22 21 20 
   9   6   2 24 19 
   4   5   1 19 
   5   5   1 20 
   8   4   4 30 29 28 23 
   7   8   5 31 30 28 26 25 
   4   4   3 28 26 25 
   2   8   2 26 25 
   4   6   2 29 26 
   3  10   1 27 
   7   4   1 32
   4   6   1 32
   4   9   1 32
   6   5   1 32
   4   8   1 32
   9   2   1 32
   0   0   0 
